c status 305 1469274501395
c status 59 1469274501400
c status 54 1469274501601
c status 52 1469274501926
c status 50 1469274503903
s td 118 50 309
b 1 113 224 1
b 2 14 3 299 2 288 1
b 3 147 3 25 125 299 2 288 47 58 136 1
b 4 180 202 3 25 125 158 213 299 2 288 47 58 136 169 1
b 5 202 3 25 125 158 213 299 2 288 47 58 136 169 191 1
b 6 7 309 241 240 11 10 4 9 299 2 288 47 58 136 169 191 225 243 287 1
b 7 309 241 240 13 11 10 4 9 299 2 288 47 58 136 169 191 225 243 287 1
b 8 214 222 241 240 221 299 2 288 47 58 136 169 191 225 243 21 287 57 107 155 200 1 203 204 210 212
b 9 222 241 240 221 299 2 288 47 58 136 169 191 225 243 21 287 57 107 155 200 1 203 204 210 212 218
b 10 242 241 240 299 2 288 47 58 136 169 191 225 1
b 11 247 241 240 299 2 288 47 58 136 169 191 225 243 1
b 12 251 241 240 299 2 288 47 58 136 169 191 225 243 1
b 13 254 241 240 299 2 288 47 58 136 169 191 225 243 1
b 14 258 241 240 299 2 288 47 58 136 169 191 225 243 1
b 15 278 275 281 241 240 276 280 282 299 2 288 47 58 136 169 191 225 243 1
b 16 283 275 281 241 240 282 285 299 2 288 47 58 136 169 191 225 243 1
b 17 275 281 241 240 274 276 280 282 285 299 2 288 47 58 136 169 191 225 243 1
b 18 298 241 240 299 2 288 47 58 136 169 191 225 243 287 1
b 19 307 241 240 299 2 288 47 58 136 169 191 225 243 287 1
b 20 40 241 39 299 2 288 47 58 136 169 191 225 243 21 287 1
b 21 45 241 299 2 288 47 58 136 169 191 225 243 21 287 1
b 22 49 241 299 2 288 47 58 136 169 191 225 243 21 287 1
b 23 241 240 13 11 10 4 9 221 246 250 253 257 274 276 280 282 285 300 39 43 46 299 2 288 47 58 136 169 191 225 243 21 287 57 107 155 200 1 203 204 210 212 218
b 24 240 13 11 10 4 9 221 239 246 250 253 257 274 276 280 282 285 300 39 43 46 299 2 288 47 58 136 169 191 225 243 21 287 57 107 155 200 1 203 204 210 212 218
b 25 100 98 101 84 96 299 2 288 47 58 136 169 191 225 243 21 287 57 1
b 26 98 99 101 84 96 299 2 288 47 58 136 169 191 225 243 21 287 57 1
b 27 106 104 101 84 96 299 2 288 47 58 136 169 191 225 243 21 287 57 1
b 28 104 105 101 84 96 299 2 288 47 58 136 169 191 225 243 21 287 57 1
b 29 110 111 109 84 96 299 2 288 47 58 136 169 191 225 243 21 287 57 107 1
b 30 115 109 84 96 299 2 288 47 58 136 169 191 225 243 21 287 57 107 1
b 31 116 117 109 84 96 299 2 288 47 58 136 169 191 225 243 21 287 57 107 1
b 32 50 299 2 288 47 58 136 169 191 225 243 21 287 1
b 33 51 299 2 288 47 58 136 169 191 225 243 21 287 1
b 34 129 135 127 299 2 288 47 58 136 169 191 225 243 21 287 57 107 1
b 35 137 138 127 299 2 288 47 58 136 169 191 225 243 21 287 57 107 1
b 36 150 162 163 299 2 288 47 58 136 169 191 225 243 21 287 57 107 1
b 37 162 163 299 2 288 47 58 136 169 191 225 243 21 287 57 107 155 1
b 38 171 299 2 288 47 58 136 169 191 225 243 21 287 57 107 155 1
b 39 173 299 2 288 47 58 136 169 191 225 243 21 287 57 107 155 1
b 40 174 299 2 288 47 58 136 169 191 225 243 21 287 57 107 155 1
b 41 236 299 2 288 47 58 136 169 191 225 1
b 42 237 299 2 288 47 58 136 169 191 225 1
b 43 17 19 16 259 224 248 266 277 302 255 235 238 245 249 252 256 260 262 271 279 284 286 289 293 297 225 243 287 1
b 44 33 29 19 20 23 24 26 27 28 16 22 30 259 224 248 266 277 302 255 235 238 245 249 252 256 260 262 271 279 284 286 289 293 297 225 243 287 1
b 45 29 31 19 20 23 24 26 27 28 16 22 30 259 224 248 266 277 302 255 235 238 245 249 252 256 260 262 271 279 284 286 289 293 297 225 243 287 1
b 46 34 35 19 20 23 24 26 27 28 16 22 30 259 224 248 266 277 302 255 235 238 245 249 252 256 260 262 271 279 284 286 289 293 297 225 243 287 1
b 47 195 196 198 192 38 187 165 32 16 22 71 30 37 134 172 175 179 184 186 190 259 224 248 266 277 302 235 238 245 249 252 256 260 262 271 279 284 286 289 293 297 225 243 287 1
b 48 196 198 192 38 187 140 165 32 16 22 71 30 37 134 172 175 179 184 186 190 259 224 248 266 277 302 235 238 245 249 252 256 260 262 271 279 284 286 289 293 297 225 243 287 1
b 49 189 185 38 187 165 32 168 16 22 71 30 37 134 172 175 179 184 186 259 224 248 266 277 302 235 238 245 249 252 256 260 262 271 279 284 286 289 293 297 225 243 287 1
b 50 194 185 192 38 187 165 32 16 22 71 30 37 134 172 175 179 184 186 190 259 224 248 266 277 302 235 238 245 249 252 256 260 262 271 279 284 286 289 293 297 225 243 287 1
b 51 193 185 192 38 187 165 32 16 22 71 30 37 134 172 175 179 184 186 190 259 224 248 266 277 302 235 238 245 249 252 256 260 262 271 279 284 286 289 293 297 225 243 287 1
b 52 185 188 192 38 187 165 32 168 16 22 71 30 37 134 172 175 179 184 186 190 259 224 248 266 277 302 235 238 245 249 252 256 260 262 271 279 284 286 289 293 297 225 243 287 1
b 53 199 198 38 187 140 32 16 22 71 30 134 172 175 179 184 186 190 197 259 224 248 266 277 302 235 238 245 249 252 256 260 262 271 279 284 286 289 293 297 225 243 287 1
b 54 198 192 38 187 140 165 32 16 22 71 30 37 134 172 175 179 184 186 190 197 259 224 248 266 277 302 235 238 245 249 252 256 260 262 271 279 284 286 289 293 297 225 243 287 1
b 55 192 38 187 140 165 32 168 16 22 71 30 37 134 172 175 179 184 186 190 197 259 224 248 266 277 302 235 238 245 249 252 256 260 262 271 279 284 286 289 293 297 225 243 287 1
b 56 38 187 140 165 32 168 16 22 71 30 37 134 172 175 179 184 186 190 197 201 230 232 259 224 248 266 277 302 235 238 245 249 252 256 260 262 271 279 284 286 289 293 297 225 243 287 1
b 57 177 42 170 165 32 168 16 22 71 30 37 134 172 175 259 224 248 266 277 302 235 238 245 249 252 256 260 262 271 279 284 286 289 293 297 225 243 287 1
b 58 42 176 170 165 32 168 16 22 71 30 37 134 172 175 179 184 186 190 197 201 230 232 259 224 248 266 277 302 235 238 245 249 252 256 260 262 271 279 284 286 289 293 297 225 243 287 1
b 59 139 183 182 170 165 32 168 22 71 30 37 134 172 175 179 184 186 190 197 201 230 232 235 238 245 249 252 256 260 262 271 279 284 286 289 293 297 225 243 287 1
b 60 183 182 170 165 32 168 16 22 71 30 37 134 172 175 179 184 186 190 197 201 230 232 259 224 248 266 277 302 235 238 245 249 252 256 260 262 271 279 284 286 289 293 297 225 243 287 1
b 61 181 178 182 170 165 32 168 16 22 71 30 37 134 172 175 179 259 224 248 266 277 302 235 238 245 249 252 256 260 262 271 279 284 286 289 293 297 225 243 287 1
b 62 170 165 32 168 16 22 71 30 37 134 83 172 175 179 184 186 190 197 201 230 232 259 224 248 266 277 302 235 238 245 249 252 256 260 262 271 279 284 286 289 293 297 225 243 287 1
b 63 167 165 168 16 22 71 30 37 134 81 83 259 224 248 266 277 302 235 238 245 249 252 256 260 262 271 279 284 286 289 293 297 225 243 287 1
b 64 165 32 168 16 22 71 30 37 134 81 83 172 175 179 184 186 190 197 201 230 232 259 224 248 266 277 302 235 238 245 249 252 256 260 262 271 279 284 286 289 293 297 225 243 287 1
b 65 41 16 22 30 37 259 224 248 266 277 302 255 235 238 245 249 252 256 260 262 271 279 284 286 289 293 297 288 47 58 136 169 191 225 243 287 1
b 66 16 22 71 30 37 134 81 83 172 175 179 184 186 190 197 201 230 232 259 224 248 266 277 302 255 235 238 245 249 252 256 260 262 271 279 284 286 289 293 297 288 47 58 136 169 191 225 243 287 1
b 67 12 22 71 81 83 172 175 179 184 186 190 197 201 230 232 235 238 245 249 252 256 260 262 271 279 284 286 289 293 297 225 243 287 1
b 68 60 61 15 22 224 266 235 238 245 249 252 256 260 262 271 279 284 286 289 293 297 225 243 1
b 69 8 48 62 63 61 172 175 179 184 186 190 197 201 235 238 245 249 252 256 260 262 271 279 284 286 289 293 297 225 243 1
b 70 62 63 61 172 175 179 184 186 190 197 201 224 266 235 238 245 249 252 256 260 262 271 279 284 286 289 293 297 225 243 1
b 71 61 15 22 172 175 179 184 186 190 197 201 224 266 235 238 245 249 252 256 260 262 271 279 284 286 289 293 297 225 243 1
b 72 52 56 66 15 22 172 175 179 184 186 190 197 201 235 238 245 249 252 256 260 262 271 279 284 286 289 293 297 225 243 1
b 73 56 66 15 22 172 175 179 184 186 190 197 201 224 266 235 238 245 249 252 256 260 262 271 279 284 286 289 293 297 225 243 1
b 74 68 53 15 22 224 266 235 238 245 249 252 256 260 262 271 279 284 286 289 293 297 225 243 1
b 75 53 55 15 22 172 175 179 184 186 190 197 201 230 224 266 235 238 245 249 252 256 260 262 271 279 284 286 289 293 297 225 243 1
b 76 55 54 15 22 172 175 179 184 186 190 197 201 230 224 266 235 238 245 249 252 256 260 262 271 279 284 286 289 293 297 225 243 1
b 77 15 22 71 30 172 175 179 184 186 190 197 201 230 232 224 266 235 238 245 249 252 256 260 262 271 279 284 286 289 293 297 225 243 287 1
b 78 5 6 261 259 224 248 266 277 302 255 235 238 245 249 252 256 260 262 271 279 284 286 289 293 297 225 243 287 1
b 79 216 211 205 64 108 206 207 208 209 261 22 71 81 83 172 175 179 184 186 190 197 201 259 224 248 266 277 255 235 238 245 249 252 256 260 262 271 279 284 286 289 293 297 225 243 287 1
b 80 211 215 205 64 108 206 207 208 209 261 22 71 81 83 172 175 179 184 186 190 197 201 259 224 248 266 277 255 235 238 245 249 252 256 260 262 271 279 284 286 289 293 297 225 243 287 1
b 81 219 220 205 64 108 112 206 207 208 209 217 261 22 71 81 83 172 175 179 184 186 190 197 201 259 224 248 266 277 255 235 238 245 249 252 256 260 262 271 279 284 286 289 293 297 225 243 287 1
b 82 64 108 112 206 207 208 209 217 261 22 71 81 83 172 175 179 184 186 190 197 201 230 232 259 224 248 266 277 255 235 238 245 249 252 256 260 262 271 279 284 286 289 293 297 225 243 287 1
b 83 291 273 263 264 265 267 268 269 270 272 261 259 224 248 266 277 255 235 238 245 249 252 256 260 262 271 279 284 286 289 225 243 287 1
b 84 273 290 263 264 265 267 268 269 270 272 261 259 224 248 266 277 255 235 238 245 249 252 256 260 262 271 279 284 286 289 225 243 287 1
b 85 295 296 263 264 265 267 268 269 270 272 292 294 261 259 224 248 266 277 255 235 238 245 249 252 256 260 262 271 279 284 286 289 293 225 243 287 1
b 86 303 304 305 261 259 224 248 266 277 302 255 235 238 245 249 252 256 260 262 271 279 284 286 289 293 297 288 47 58 136 225 243 287 1
b 87 308 261 259 224 248 266 277 302 255 235 238 245 249 252 256 260 262 271 279 284 286 289 293 297 225 243 287 1
b 88 261 22 71 81 83 172 175 179 184 186 190 197 201 230 232 259 224 248 266 277 302 255 235 238 245 249 252 256 260 262 271 279 284 286 289 293 297 288 47 58 136 169 191 225 243 287 1
b 89 44 122 128 22 71 30 37 134 81 83 172 175 179 184 186 190 197 201 230 232 235 238 245 249 252 256 260 262 271 279 284 286 289 293 297 225 243 287 1
b 90 93 92 95 70 59 72 73 74 75 76 77 78 79 87 89 90 94 22 71 30 259 224 248 266 277 235 238 245 249 252 256 260 262 271 279 284 286 289 293 297 225 243 287 1
b 91 164 166 59 22 71 30 172 175 179 184 186 190 197 201 230 232 235 238 245 249 252 256 260 262 271 279 284 286 289 293 297 225 243 287 1
b 92 86 82 70 59 72 73 74 75 76 77 78 79 22 71 30 259 224 248 266 277 235 238 245 249 252 256 260 262 271 279 284 286 289 293 297 225 243 287 1
b 93 82 85 70 59 72 73 74 75 76 77 78 79 22 71 30 259 224 248 266 277 235 238 245 249 252 256 260 262 271 279 284 286 289 293 297 225 243 287 1
b 94 59 72 73 74 75 76 77 78 79 87 89 90 94 22 71 30 172 175 179 184 186 190 197 201 230 232 259 224 248 266 277 235 238 245 249 252 256 260 262 271 279 284 286 289 293 297 225 243 287 1
b 95 65 67 301 306 234 71 81 83 172 175 179 184 186 190 197 201 230 232 235 238 245 249 252 256 260 262 271 279 284 286 289 293 297 225 243 287 1
b 96 233 234 172 175 179 184 186 190 197 201 230 232 235 238 245 249 252 256 260 262 271 279 284 286 289 293 297 225 243 287 1
b 97 88 97 103 22 71 81 83 172 175 179 184 186 190 197 201 230 232 235 238 245 249 252 256 260 262 271 279 284 286 289 293 297 225 243 287 1
b 98 118 22 71 30 81 83 172 175 179 184 186 190 197 201 230 232 235 238 245 249 252 256 260 262 271 279 284 286 289 293 297 225 243 287 1
b 99 121 119 120 22 71 30 259 224 248 266 277 302 235 238 245 249 252 256 260 262 271 279 284 286 289 293 297 225 243 287 1
b 100 123 124 119 120 22 71 30 259 224 248 266 277 302 235 238 245 249 252 256 260 262 271 279 284 286 289 293 297 225 243 287 1
b 101 124 126 119 120 22 71 30 259 224 248 266 277 302 235 238 245 249 252 256 260 262 271 279 284 286 289 293 297 225 243 287 1
b 102 132 130 126 119 22 71 30 259 224 248 266 277 235 238 245 249 252 256 260 262 271 279 284 286 289 293 297 225 243 287 1
b 103 130 131 126 119 22 71 30 259 224 248 266 277 235 238 245 249 252 256 260 262 271 279 284 286 289 293 297 225 243 287 1
b 104 141 142 143 144 145 146 148 157 159 160 161 154 151 153 119 120 22 71 30 259 224 248 266 277 302 235 238 245 249 252 256 260 262 271 279 284 286 289 293 297 225 243 287 1
b 105 149 152 156 157 159 160 161 154 151 153 22 71 30 172 175 179 184 186 190 197 201 230 232 235 238 245 249 252 256 260 262 271 279 284 286 289 293 297 225 243 287 1
b 106 157 159 160 161 154 151 153 119 120 22 71 30 172 175 179 184 186 190 197 201 230 232 259 224 248 266 277 302 235 238 245 249 252 256 260 262 271 279 284 286 289 293 297 225 243 287 1
b 107 133 119 22 71 30 259 224 248 266 277 235 238 245 249 252 256 260 262 271 279 284 286 289 293 297 225 243 287 1
b 108 36 224 266 277 255 1
b 109 69 80 91 102 114 224 266 277 255 1
b 110 244 224 255 1
b 111 223 18 226 227 228 231 260 262 271 279 284 286 289 293 297 2 288 47 58 136 169 191 225 243 21 287 57 107 155 200 1 203 204 210 212 218
b 112 229 231 243 21 287 57 107 155 200 1
b 113 172 175 179 184 186 190 197 201 230 232 259 224 248 266 277 302 255 235 238 245 249 252 256 260 262 271 279 284 286 289 293 297 2 288 47 58 136 169 191 225 243 287 57 107 155 1
b 114 238 245 249 252 256 260 262 271 279 284 286 289 293 297 2 288 47 58 136 169 191 225 243 287 57 107 155 1 203
b 115 245 249 252 256 260 262 271 279 284 286 289 293 297 2 288 47 58 136 169 191 225 243 287 57 107 155 1 203 204
b 116 249 252 256 260 262 271 279 284 286 289 293 297 2 288 47 58 136 169 191 225 243 287 57 107 155 1 203 204 210
b 117 252 256 260 262 271 279 284 286 289 293 297 2 288 47 58 136 169 191 225 243 287 57 107 155 1 203 204 210 212
b 118 256 260 262 271 279 284 286 289 293 297 2 288 47 58 136 169 191 225 243 287 57 107 155 1 203 204 210 212 218
1 43
43 44
44 45
44 46
45 66
66 88
66 64
64 62
62 58
62 60
62 56
56 55
55 54
54 48
48 47
55 52
52 50
52 51
54 53
52 49
88 113
88 82
82 81
81 79
79 80
60 59
60 61
56 106
106 105
58 57
66 94
94 90
106 104
90 92
92 93
66 65
66 89
64 63
66 77
66 98
82 67
82 97
94 91
82 95
88 86
77 75
75 76
95 96
106 99
106 100
100 101
77 73
77 71
73 72
101 103
103 102
71 70
70 69
102 107
113 114
114 115
115 116
116 117
117 118
118 111
88 78
78 87
82 85
85 83
83 84
75 74
71 68
111 9
9 8
9 23
23 24
23 7
7 6
23 17
17 15
17 16
24 39
9 40
9 38
23 37
37 36
36 35
35 34
34 29
29 30
29 31
29 28
28 27
28 25
25 26
23 20
20 21
20 22
6 19
19 18
34 32
34 33
19 11
19 12
19 14
11 13
11 10
34 41
34 42
26 5
5 4
5 3
111 112
5 2
45 108
45 109
108 110
